\ Model Variable Bin Packing Problem with Different Raw Material Lengths
\ LP format - for model browsing. Use MPS format to capture full model detail.
Minimize
  3.6270609987 y[0,0] + 20.684927418 y[0,1] + 65.33855934020001 y[0,2]
   + 3.6270609987 y[1,0] + 20.684927418 y[1,1] + 65.33855934020001 y[1,2]
   + 3.6270609987 y[2,0] + 20.684927418 y[2,1] + 65.33855934020001 y[2,2]
   + 3.6270609987 y[3,0] + 20.684927418 y[3,1] + 65.33855934020001 y[3,2]
   + 3.6270609987 y[4,0] + 20.684927418 y[4,1] + 65.33855934020001 y[4,2]
   + 3.6270609987 y[5,0] + 20.684927418 y[5,1] + 65.33855934020001 y[5,2]
   + 3.6270609987 y[6,0] + 20.684927418 y[6,1] + 65.33855934020001 y[6,2]
   + 3.6270609987 y[7,0] + 20.684927418 y[7,1] + 65.33855934020001 y[7,2]
   + 3.6270609987 y[8,0] + 20.684927418 y[8,1] + 65.33855934020001 y[8,2]
   + 3.6270609987 y[9,0] + 20.684927418 y[9,1] + 65.33855934020001 y[9,2]
   + 3.6270609987 y[10,0] + 20.684927418 y[10,1]
   + 65.33855934020001 y[10,2] + 3.6270609987 y[11,0]
   + 20.684927418 y[11,1] + 65.33855934020001 y[11,2]
   + 3.6270609987 y[12,0] + 20.684927418 y[12,1]
   + 65.33855934020001 y[12,2] + 3.6270609987 y[13,0]
   + 20.684927418 y[13,1] + 65.33855934020001 y[13,2]
   + 3.6270609987 y[14,0] + 20.684927418 y[14,1]
   + 65.33855934020001 y[14,2] + 3.6270609987 y[15,0]
   + 20.684927418 y[15,1] + 65.33855934020001 y[15,2]
   + 3.6270609987 y[16,0] + 20.684927418 y[16,1]
   + 65.33855934020001 y[16,2] + 3.6270609987 y[17,0]
   + 20.684927418 y[17,1] + 65.33855934020001 y[17,2]
   + 3.6270609987 y[18,0] + 20.684927418 y[18,1]
   + 65.33855934020001 y[18,2] + 3.6270609987 y[19,0]
   + 20.684927418 y[19,1] + 65.33855934020001 y[19,2]
   + 3.6270609987 y[20,0] + 20.684927418 y[20,1]
   + 65.33855934020001 y[20,2] + 3.6270609987 y[21,0]
   + 20.684927418 y[21,1] + 65.33855934020001 y[21,2]
   + 3.6270609987 y[22,0] + 20.684927418 y[22,1]
   + 65.33855934020001 y[22,2] + 3.6270609987 y[23,0]
   + 20.684927418 y[23,1] + 65.33855934020001 y[23,2]
Subject To
 R0: - 3.9499247244 y[0,0] + 54.9492065797 x[0,0,0] + 22.823621582 x[0,1,0]
   + 59.3373027037 x[0,2,0] + 81.13361521109999 x[0,3,0]
   + 1.6433772081 x[0,4,0] <= 0
 R1: - 22.6451595056 y[0,1] + 54.9492065797 x[0,0,1]
   + 22.823621582 x[0,1,1] + 59.3373027037 x[0,2,1]
   + 81.13361521109999 x[0,3,1] + 1.6433772081 x[0,4,1] <= 0
 R2: - 51.0301735222 y[0,2] + 54.9492065797 x[0,0,2]
   + 22.823621582 x[0,1,2] + 59.3373027037 x[0,2,2]
   + 81.13361521109999 x[0,3,2] + 1.6433772081 x[0,4,2] <= 0
 R3: - 3.9499247244 y[1,0] + 54.9492065797 x[1,0,0] + 22.823621582 x[1,1,0]
   + 59.3373027037 x[1,2,0] + 81.13361521109999 x[1,3,0]
   + 1.6433772081 x[1,4,0] <= 0
 R4: - 22.6451595056 y[1,1] + 54.9492065797 x[1,0,1]
   + 22.823621582 x[1,1,1] + 59.3373027037 x[1,2,1]
   + 81.13361521109999 x[1,3,1] + 1.6433772081 x[1,4,1] <= 0
 R5: - 51.0301735222 y[1,2] + 54.9492065797 x[1,0,2]
   + 22.823621582 x[1,1,2] + 59.3373027037 x[1,2,2]
   + 81.13361521109999 x[1,3,2] + 1.6433772081 x[1,4,2] <= 0
 R6: - 3.9499247244 y[2,0] + 54.9492065797 x[2,0,0] + 22.823621582 x[2,1,0]
   + 59.3373027037 x[2,2,0] + 81.13361521109999 x[2,3,0]
   + 1.6433772081 x[2,4,0] <= 0
 R7: - 22.6451595056 y[2,1] + 54.9492065797 x[2,0,1]
   + 22.823621582 x[2,1,1] + 59.3373027037 x[2,2,1]
   + 81.13361521109999 x[2,3,1] + 1.6433772081 x[2,4,1] <= 0
 R8: - 51.0301735222 y[2,2] + 54.9492065797 x[2,0,2]
   + 22.823621582 x[2,1,2] + 59.3373027037 x[2,2,2]
   + 81.13361521109999 x[2,3,2] + 1.6433772081 x[2,4,2] <= 0
 R9: - 3.9499247244 y[3,0] + 54.9492065797 x[3,0,0] + 22.823621582 x[3,1,0]
   + 59.3373027037 x[3,2,0] + 81.13361521109999 x[3,3,0]
   + 1.6433772081 x[3,4,0] <= 0
 R10: - 22.6451595056 y[3,1] + 54.9492065797 x[3,0,1]
   + 22.823621582 x[3,1,1] + 59.3373027037 x[3,2,1]
   + 81.13361521109999 x[3,3,1] + 1.6433772081 x[3,4,1] <= 0
 R11: - 51.0301735222 y[3,2] + 54.9492065797 x[3,0,2]
   + 22.823621582 x[3,1,2] + 59.3373027037 x[3,2,2]
   + 81.13361521109999 x[3,3,2] + 1.6433772081 x[3,4,2] <= 0
 R12: - 3.9499247244 y[4,0] + 54.9492065797 x[4,0,0]
   + 22.823621582 x[4,1,0] + 59.3373027037 x[4,2,0]
   + 81.13361521109999 x[4,3,0] + 1.6433772081 x[4,4,0] <= 0
 R13: - 22.6451595056 y[4,1] + 54.9492065797 x[4,0,1]
   + 22.823621582 x[4,1,1] + 59.3373027037 x[4,2,1]
   + 81.13361521109999 x[4,3,1] + 1.6433772081 x[4,4,1] <= 0
 R14: - 51.0301735222 y[4,2] + 54.9492065797 x[4,0,2]
   + 22.823621582 x[4,1,2] + 59.3373027037 x[4,2,2]
   + 81.13361521109999 x[4,3,2] + 1.6433772081 x[4,4,2] <= 0
 R15: - 3.9499247244 y[5,0] + 54.9492065797 x[5,0,0]
   + 22.823621582 x[5,1,0] + 59.3373027037 x[5,2,0]
   + 81.13361521109999 x[5,3,0] + 1.6433772081 x[5,4,0] <= 0
 R16: - 22.6451595056 y[5,1] + 54.9492065797 x[5,0,1]
   + 22.823621582 x[5,1,1] + 59.3373027037 x[5,2,1]
   + 81.13361521109999 x[5,3,1] + 1.6433772081 x[5,4,1] <= 0
 R17: - 51.0301735222 y[5,2] + 54.9492065797 x[5,0,2]
   + 22.823621582 x[5,1,2] + 59.3373027037 x[5,2,2]
   + 81.13361521109999 x[5,3,2] + 1.6433772081 x[5,4,2] <= 0
 R18: - 3.9499247244 y[6,0] + 54.9492065797 x[6,0,0]
   + 22.823621582 x[6,1,0] + 59.3373027037 x[6,2,0]
   + 81.13361521109999 x[6,3,0] + 1.6433772081 x[6,4,0] <= 0
 R19: - 22.6451595056 y[6,1] + 54.9492065797 x[6,0,1]
   + 22.823621582 x[6,1,1] + 59.3373027037 x[6,2,1]
   + 81.13361521109999 x[6,3,1] + 1.6433772081 x[6,4,1] <= 0
 R20: - 51.0301735222 y[6,2] + 54.9492065797 x[6,0,2]
   + 22.823621582 x[6,1,2] + 59.3373027037 x[6,2,2]
   + 81.13361521109999 x[6,3,2] + 1.6433772081 x[6,4,2] <= 0
 R21: - 3.9499247244 y[7,0] + 54.9492065797 x[7,0,0]
   + 22.823621582 x[7,1,0] + 59.3373027037 x[7,2,0]
   + 81.13361521109999 x[7,3,0] + 1.6433772081 x[7,4,0] <= 0
 R22: - 22.6451595056 y[7,1] + 54.9492065797 x[7,0,1]
   + 22.823621582 x[7,1,1] + 59.3373027037 x[7,2,1]
   + 81.13361521109999 x[7,3,1] + 1.6433772081 x[7,4,1] <= 0
 R23: - 51.0301735222 y[7,2] + 54.9492065797 x[7,0,2]
   + 22.823621582 x[7,1,2] + 59.3373027037 x[7,2,2]
   + 81.13361521109999 x[7,3,2] + 1.6433772081 x[7,4,2] <= 0
 R24: - 3.9499247244 y[8,0] + 54.9492065797 x[8,0,0]
   + 22.823621582 x[8,1,0] + 59.3373027037 x[8,2,0]
   + 81.13361521109999 x[8,3,0] + 1.6433772081 x[8,4,0] <= 0
 R25: - 22.6451595056 y[8,1] + 54.9492065797 x[8,0,1]
   + 22.823621582 x[8,1,1] + 59.3373027037 x[8,2,1]
   + 81.13361521109999 x[8,3,1] + 1.6433772081 x[8,4,1] <= 0
 R26: - 51.0301735222 y[8,2] + 54.9492065797 x[8,0,2]
   + 22.823621582 x[8,1,2] + 59.3373027037 x[8,2,2]
   + 81.13361521109999 x[8,3,2] + 1.6433772081 x[8,4,2] <= 0
 R27: - 3.9499247244 y[9,0] + 54.9492065797 x[9,0,0]
   + 22.823621582 x[9,1,0] + 59.3373027037 x[9,2,0]
   + 81.13361521109999 x[9,3,0] + 1.6433772081 x[9,4,0] <= 0
 R28: - 22.6451595056 y[9,1] + 54.9492065797 x[9,0,1]
   + 22.823621582 x[9,1,1] + 59.3373027037 x[9,2,1]
   + 81.13361521109999 x[9,3,1] + 1.6433772081 x[9,4,1] <= 0
 R29: - 51.0301735222 y[9,2] + 54.9492065797 x[9,0,2]
   + 22.823621582 x[9,1,2] + 59.3373027037 x[9,2,2]
   + 81.13361521109999 x[9,3,2] + 1.6433772081 x[9,4,2] <= 0
 R30: - 3.9499247244 y[10,0] + 54.9492065797 x[10,0,0]
   + 22.823621582 x[10,1,0] + 59.3373027037 x[10,2,0]
   + 81.13361521109999 x[10,3,0] + 1.6433772081 x[10,4,0] <= 0
 R31: - 22.6451595056 y[10,1] + 54.9492065797 x[10,0,1]
   + 22.823621582 x[10,1,1] + 59.3373027037 x[10,2,1]
   + 81.13361521109999 x[10,3,1] + 1.6433772081 x[10,4,1] <= 0
 R32: - 51.0301735222 y[10,2] + 54.9492065797 x[10,0,2]
   + 22.823621582 x[10,1,2] + 59.3373027037 x[10,2,2]
   + 81.13361521109999 x[10,3,2] + 1.6433772081 x[10,4,2] <= 0
 R33: - 3.9499247244 y[11,0] + 54.9492065797 x[11,0,0]
   + 22.823621582 x[11,1,0] + 59.3373027037 x[11,2,0]
   + 81.13361521109999 x[11,3,0] + 1.6433772081 x[11,4,0] <= 0
 R34: - 22.6451595056 y[11,1] + 54.9492065797 x[11,0,1]
   + 22.823621582 x[11,1,1] + 59.3373027037 x[11,2,1]
   + 81.13361521109999 x[11,3,1] + 1.6433772081 x[11,4,1] <= 0
 R35: - 51.0301735222 y[11,2] + 54.9492065797 x[11,0,2]
   + 22.823621582 x[11,1,2] + 59.3373027037 x[11,2,2]
   + 81.13361521109999 x[11,3,2] + 1.6433772081 x[11,4,2] <= 0
 R36: - 3.9499247244 y[12,0] + 54.9492065797 x[12,0,0]
   + 22.823621582 x[12,1,0] + 59.3373027037 x[12,2,0]
   + 81.13361521109999 x[12,3,0] + 1.6433772081 x[12,4,0] <= 0
 R37: - 22.6451595056 y[12,1] + 54.9492065797 x[12,0,1]
   + 22.823621582 x[12,1,1] + 59.3373027037 x[12,2,1]
   + 81.13361521109999 x[12,3,1] + 1.6433772081 x[12,4,1] <= 0
 R38: - 51.0301735222 y[12,2] + 54.9492065797 x[12,0,2]
   + 22.823621582 x[12,1,2] + 59.3373027037 x[12,2,2]
   + 81.13361521109999 x[12,3,2] + 1.6433772081 x[12,4,2] <= 0
 R39: - 3.9499247244 y[13,0] + 54.9492065797 x[13,0,0]
   + 22.823621582 x[13,1,0] + 59.3373027037 x[13,2,0]
   + 81.13361521109999 x[13,3,0] + 1.6433772081 x[13,4,0] <= 0
 R40: - 22.6451595056 y[13,1] + 54.9492065797 x[13,0,1]
   + 22.823621582 x[13,1,1] + 59.3373027037 x[13,2,1]
   + 81.13361521109999 x[13,3,1] + 1.6433772081 x[13,4,1] <= 0
 R41: - 51.0301735222 y[13,2] + 54.9492065797 x[13,0,2]
   + 22.823621582 x[13,1,2] + 59.3373027037 x[13,2,2]
   + 81.13361521109999 x[13,3,2] + 1.6433772081 x[13,4,2] <= 0
 R42: - 3.9499247244 y[14,0] + 54.9492065797 x[14,0,0]
   + 22.823621582 x[14,1,0] + 59.3373027037 x[14,2,0]
   + 81.13361521109999 x[14,3,0] + 1.6433772081 x[14,4,0] <= 0
 R43: - 22.6451595056 y[14,1] + 54.9492065797 x[14,0,1]
   + 22.823621582 x[14,1,1] + 59.3373027037 x[14,2,1]
   + 81.13361521109999 x[14,3,1] + 1.6433772081 x[14,4,1] <= 0
 R44: - 51.0301735222 y[14,2] + 54.9492065797 x[14,0,2]
   + 22.823621582 x[14,1,2] + 59.3373027037 x[14,2,2]
   + 81.13361521109999 x[14,3,2] + 1.6433772081 x[14,4,2] <= 0
 R45: - 3.9499247244 y[15,0] + 54.9492065797 x[15,0,0]
   + 22.823621582 x[15,1,0] + 59.3373027037 x[15,2,0]
   + 81.13361521109999 x[15,3,0] + 1.6433772081 x[15,4,0] <= 0
 R46: - 22.6451595056 y[15,1] + 54.9492065797 x[15,0,1]
   + 22.823621582 x[15,1,1] + 59.3373027037 x[15,2,1]
   + 81.13361521109999 x[15,3,1] + 1.6433772081 x[15,4,1] <= 0
 R47: - 51.0301735222 y[15,2] + 54.9492065797 x[15,0,2]
   + 22.823621582 x[15,1,2] + 59.3373027037 x[15,2,2]
   + 81.13361521109999 x[15,3,2] + 1.6433772081 x[15,4,2] <= 0
 R48: - 3.9499247244 y[16,0] + 54.9492065797 x[16,0,0]
   + 22.823621582 x[16,1,0] + 59.3373027037 x[16,2,0]
   + 81.13361521109999 x[16,3,0] + 1.6433772081 x[16,4,0] <= 0
 R49: - 22.6451595056 y[16,1] + 54.9492065797 x[16,0,1]
   + 22.823621582 x[16,1,1] + 59.3373027037 x[16,2,1]
   + 81.13361521109999 x[16,3,1] + 1.6433772081 x[16,4,1] <= 0
 R50: - 51.0301735222 y[16,2] + 54.9492065797 x[16,0,2]
   + 22.823621582 x[16,1,2] + 59.3373027037 x[16,2,2]
   + 81.13361521109999 x[16,3,2] + 1.6433772081 x[16,4,2] <= 0
 R51: - 3.9499247244 y[17,0] + 54.9492065797 x[17,0,0]
   + 22.823621582 x[17,1,0] + 59.3373027037 x[17,2,0]
   + 81.13361521109999 x[17,3,0] + 1.6433772081 x[17,4,0] <= 0
 R52: - 22.6451595056 y[17,1] + 54.9492065797 x[17,0,1]
   + 22.823621582 x[17,1,1] + 59.3373027037 x[17,2,1]
   + 81.13361521109999 x[17,3,1] + 1.6433772081 x[17,4,1] <= 0
 R53: - 51.0301735222 y[17,2] + 54.9492065797 x[17,0,2]
   + 22.823621582 x[17,1,2] + 59.3373027037 x[17,2,2]
   + 81.13361521109999 x[17,3,2] + 1.6433772081 x[17,4,2] <= 0
 R54: - 3.9499247244 y[18,0] + 54.9492065797 x[18,0,0]
   + 22.823621582 x[18,1,0] + 59.3373027037 x[18,2,0]
   + 81.13361521109999 x[18,3,0] + 1.6433772081 x[18,4,0] <= 0
 R55: - 22.6451595056 y[18,1] + 54.9492065797 x[18,0,1]
   + 22.823621582 x[18,1,1] + 59.3373027037 x[18,2,1]
   + 81.13361521109999 x[18,3,1] + 1.6433772081 x[18,4,1] <= 0
 R56: - 51.0301735222 y[18,2] + 54.9492065797 x[18,0,2]
   + 22.823621582 x[18,1,2] + 59.3373027037 x[18,2,2]
   + 81.13361521109999 x[18,3,2] + 1.6433772081 x[18,4,2] <= 0
 R57: - 3.9499247244 y[19,0] + 54.9492065797 x[19,0,0]
   + 22.823621582 x[19,1,0] + 59.3373027037 x[19,2,0]
   + 81.13361521109999 x[19,3,0] + 1.6433772081 x[19,4,0] <= 0
 R58: - 22.6451595056 y[19,1] + 54.9492065797 x[19,0,1]
   + 22.823621582 x[19,1,1] + 59.3373027037 x[19,2,1]
   + 81.13361521109999 x[19,3,1] + 1.6433772081 x[19,4,1] <= 0
 R59: - 51.0301735222 y[19,2] + 54.9492065797 x[19,0,2]
   + 22.823621582 x[19,1,2] + 59.3373027037 x[19,2,2]
   + 81.13361521109999 x[19,3,2] + 1.6433772081 x[19,4,2] <= 0
 R60: - 3.9499247244 y[20,0] + 54.9492065797 x[20,0,0]
   + 22.823621582 x[20,1,0] + 59.3373027037 x[20,2,0]
   + 81.13361521109999 x[20,3,0] + 1.6433772081 x[20,4,0] <= 0
 R61: - 22.6451595056 y[20,1] + 54.9492065797 x[20,0,1]
   + 22.823621582 x[20,1,1] + 59.3373027037 x[20,2,1]
   + 81.13361521109999 x[20,3,1] + 1.6433772081 x[20,4,1] <= 0
 R62: - 51.0301735222 y[20,2] + 54.9492065797 x[20,0,2]
   + 22.823621582 x[20,1,2] + 59.3373027037 x[20,2,2]
   + 81.13361521109999 x[20,3,2] + 1.6433772081 x[20,4,2] <= 0
 R63: - 3.9499247244 y[21,0] + 54.9492065797 x[21,0,0]
   + 22.823621582 x[21,1,0] + 59.3373027037 x[21,2,0]
   + 81.13361521109999 x[21,3,0] + 1.6433772081 x[21,4,0] <= 0
 R64: - 22.6451595056 y[21,1] + 54.9492065797 x[21,0,1]
   + 22.823621582 x[21,1,1] + 59.3373027037 x[21,2,1]
   + 81.13361521109999 x[21,3,1] + 1.6433772081 x[21,4,1] <= 0
 R65: - 51.0301735222 y[21,2] + 54.9492065797 x[21,0,2]
   + 22.823621582 x[21,1,2] + 59.3373027037 x[21,2,2]
   + 81.13361521109999 x[21,3,2] + 1.6433772081 x[21,4,2] <= 0
 R66: - 3.9499247244 y[22,0] + 54.9492065797 x[22,0,0]
   + 22.823621582 x[22,1,0] + 59.3373027037 x[22,2,0]
   + 81.13361521109999 x[22,3,0] + 1.6433772081 x[22,4,0] <= 0
 R67: - 22.6451595056 y[22,1] + 54.9492065797 x[22,0,1]
   + 22.823621582 x[22,1,1] + 59.3373027037 x[22,2,1]
   + 81.13361521109999 x[22,3,1] + 1.6433772081 x[22,4,1] <= 0
 R68: - 51.0301735222 y[22,2] + 54.9492065797 x[22,0,2]
   + 22.823621582 x[22,1,2] + 59.3373027037 x[22,2,2]
   + 81.13361521109999 x[22,3,2] + 1.6433772081 x[22,4,2] <= 0
 R69: - 3.9499247244 y[23,0] + 54.9492065797 x[23,0,0]
   + 22.823621582 x[23,1,0] + 59.3373027037 x[23,2,0]
   + 81.13361521109999 x[23,3,0] + 1.6433772081 x[23,4,0] <= 0
 R70: - 22.6451595056 y[23,1] + 54.9492065797 x[23,0,1]
   + 22.823621582 x[23,1,1] + 59.3373027037 x[23,2,1]
   + 81.13361521109999 x[23,3,1] + 1.6433772081 x[23,4,1] <= 0
 R71: - 51.0301735222 y[23,2] + 54.9492065797 x[23,0,2]
   + 22.823621582 x[23,1,2] + 59.3373027037 x[23,2,2]
   + 81.13361521109999 x[23,3,2] + 1.6433772081 x[23,4,2] <= 0
 R72: x[0,0,0] + x[0,0,1] + x[0,0,2] + x[1,0,0] + x[1,0,1] + x[1,0,2]
   + x[2,0,0] + x[2,0,1] + x[2,0,2] + x[3,0,0] + x[3,0,1] + x[3,0,2]
   + x[4,0,0] + x[4,0,1] + x[4,0,2] + x[5,0,0] + x[5,0,1] + x[5,0,2]
   + x[6,0,0] + x[6,0,1] + x[6,0,2] + x[7,0,0] + x[7,0,1] + x[7,0,2]
   + x[8,0,0] + x[8,0,1] + x[8,0,2] + x[9,0,0] + x[9,0,1] + x[9,0,2]
   + x[10,0,0] + x[10,0,1] + x[10,0,2] + x[11,0,0] + x[11,0,1] + x[11,0,2]
   + x[12,0,0] + x[12,0,1] + x[12,0,2] + x[13,0,0] + x[13,0,1] + x[13,0,2]
   + x[14,0,0] + x[14,0,1] + x[14,0,2] + x[15,0,0] + x[15,0,1] + x[15,0,2]
   + x[16,0,0] + x[16,0,1] + x[16,0,2] + x[17,0,0] + x[17,0,1] + x[17,0,2]
   + x[18,0,0] + x[18,0,1] + x[18,0,2] + x[19,0,0] + x[19,0,1] + x[19,0,2]
   + x[20,0,0] + x[20,0,1] + x[20,0,2] + x[21,0,0] + x[21,0,1] + x[21,0,2]
   + x[22,0,0] + x[22,0,1] + x[22,0,2] + x[23,0,0] + x[23,0,1] + x[23,0,2]
   >= 3
 R73: x[0,1,0] + x[0,1,1] + x[0,1,2] + x[1,1,0] + x[1,1,1] + x[1,1,2]
   + x[2,1,0] + x[2,1,1] + x[2,1,2] + x[3,1,0] + x[3,1,1] + x[3,1,2]
   + x[4,1,0] + x[4,1,1] + x[4,1,2] + x[5,1,0] + x[5,1,1] + x[5,1,2]
   + x[6,1,0] + x[6,1,1] + x[6,1,2] + x[7,1,0] + x[7,1,1] + x[7,1,2]
   + x[8,1,0] + x[8,1,1] + x[8,1,2] + x[9,1,0] + x[9,1,1] + x[9,1,2]
   + x[10,1,0] + x[10,1,1] + x[10,1,2] + x[11,1,0] + x[11,1,1] + x[11,1,2]
   + x[12,1,0] + x[12,1,1] + x[12,1,2] + x[13,1,0] + x[13,1,1] + x[13,1,2]
   + x[14,1,0] + x[14,1,1] + x[14,1,2] + x[15,1,0] + x[15,1,1] + x[15,1,2]
   + x[16,1,0] + x[16,1,1] + x[16,1,2] + x[17,1,0] + x[17,1,1] + x[17,1,2]
   + x[18,1,0] + x[18,1,1] + x[18,1,2] + x[19,1,0] + x[19,1,1] + x[19,1,2]
   + x[20,1,0] + x[20,1,1] + x[20,1,2] + x[21,1,0] + x[21,1,1] + x[21,1,2]
   + x[22,1,0] + x[22,1,1] + x[22,1,2] + x[23,1,0] + x[23,1,1] + x[23,1,2]
   >= 7
 R74: x[0,2,0] + x[0,2,1] + x[0,2,2] + x[1,2,0] + x[1,2,1] + x[1,2,2]
   + x[2,2,0] + x[2,2,1] + x[2,2,2] + x[3,2,0] + x[3,2,1] + x[3,2,2]
   + x[4,2,0] + x[4,2,1] + x[4,2,2] + x[5,2,0] + x[5,2,1] + x[5,2,2]
   + x[6,2,0] + x[6,2,1] + x[6,2,2] + x[7,2,0] + x[7,2,1] + x[7,2,2]
   + x[8,2,0] + x[8,2,1] + x[8,2,2] + x[9,2,0] + x[9,2,1] + x[9,2,2]
   + x[10,2,0] + x[10,2,1] + x[10,2,2] + x[11,2,0] + x[11,2,1] + x[11,2,2]
   + x[12,2,0] + x[12,2,1] + x[12,2,2] + x[13,2,0] + x[13,2,1] + x[13,2,2]
   + x[14,2,0] + x[14,2,1] + x[14,2,2] + x[15,2,0] + x[15,2,1] + x[15,2,2]
   + x[16,2,0] + x[16,2,1] + x[16,2,2] + x[17,2,0] + x[17,2,1] + x[17,2,2]
   + x[18,2,0] + x[18,2,1] + x[18,2,2] + x[19,2,0] + x[19,2,1] + x[19,2,2]
   + x[20,2,0] + x[20,2,1] + x[20,2,2] + x[21,2,0] + x[21,2,1] + x[21,2,2]
   + x[22,2,0] + x[22,2,1] + x[22,2,2] + x[23,2,0] + x[23,2,1] + x[23,2,2]
   >= 6
 R75: x[0,3,0] + x[0,3,1] + x[0,3,2] + x[1,3,0] + x[1,3,1] + x[1,3,2]
   + x[2,3,0] + x[2,3,1] + x[2,3,2] + x[3,3,0] + x[3,3,1] + x[3,3,2]
   + x[4,3,0] + x[4,3,1] + x[4,3,2] + x[5,3,0] + x[5,3,1] + x[5,3,2]
   + x[6,3,0] + x[6,3,1] + x[6,3,2] + x[7,3,0] + x[7,3,1] + x[7,3,2]
   + x[8,3,0] + x[8,3,1] + x[8,3,2] + x[9,3,0] + x[9,3,1] + x[9,3,2]
   + x[10,3,0] + x[10,3,1] + x[10,3,2] + x[11,3,0] + x[11,3,1] + x[11,3,2]
   + x[12,3,0] + x[12,3,1] + x[12,3,2] + x[13,3,0] + x[13,3,1] + x[13,3,2]
   + x[14,3,0] + x[14,3,1] + x[14,3,2] + x[15,3,0] + x[15,3,1] + x[15,3,2]
   + x[16,3,0] + x[16,3,1] + x[16,3,2] + x[17,3,0] + x[17,3,1] + x[17,3,2]
   + x[18,3,0] + x[18,3,1] + x[18,3,2] + x[19,3,0] + x[19,3,1] + x[19,3,2]
   + x[20,3,0] + x[20,3,1] + x[20,3,2] + x[21,3,0] + x[21,3,1] + x[21,3,2]
   + x[22,3,0] + x[22,3,1] + x[22,3,2] + x[23,3,0] + x[23,3,1] + x[23,3,2]
   >= 5
 R76: x[0,4,0] + x[0,4,1] + x[0,4,2] + x[1,4,0] + x[1,4,1] + x[1,4,2]
   + x[2,4,0] + x[2,4,1] + x[2,4,2] + x[3,4,0] + x[3,4,1] + x[3,4,2]
   + x[4,4,0] + x[4,4,1] + x[4,4,2] + x[5,4,0] + x[5,4,1] + x[5,4,2]
   + x[6,4,0] + x[6,4,1] + x[6,4,2] + x[7,4,0] + x[7,4,1] + x[7,4,2]
   + x[8,4,0] + x[8,4,1] + x[8,4,2] + x[9,4,0] + x[9,4,1] + x[9,4,2]
   + x[10,4,0] + x[10,4,1] + x[10,4,2] + x[11,4,0] + x[11,4,1] + x[11,4,2]
   + x[12,4,0] + x[12,4,1] + x[12,4,2] + x[13,4,0] + x[13,4,1] + x[13,4,2]
   + x[14,4,0] + x[14,4,1] + x[14,4,2] + x[15,4,0] + x[15,4,1] + x[15,4,2]
   + x[16,4,0] + x[16,4,1] + x[16,4,2] + x[17,4,0] + x[17,4,1] + x[17,4,2]
   + x[18,4,0] + x[18,4,1] + x[18,4,2] + x[19,4,0] + x[19,4,1] + x[19,4,2]
   + x[20,4,0] + x[20,4,1] + x[20,4,2] + x[21,4,0] + x[21,4,1] + x[21,4,2]
   + x[22,4,0] + x[22,4,1] + x[22,4,2] + x[23,4,0] + x[23,4,1] + x[23,4,2]
   >= 3
Bounds
Binaries
 y[0,0] y[0,1] y[0,2] y[1,0] y[1,1] y[1,2] y[2,0] y[2,1] y[2,2] y[3,0]
 y[3,1] y[3,2] y[4,0] y[4,1] y[4,2] y[5,0] y[5,1] y[5,2] y[6,0] y[6,1]
 y[6,2] y[7,0] y[7,1] y[7,2] y[8,0] y[8,1] y[8,2] y[9,0] y[9,1] y[9,2]
 y[10,0] y[10,1] y[10,2] y[11,0] y[11,1] y[11,2] y[12,0] y[12,1] y[12,2]
 y[13,0] y[13,1] y[13,2] y[14,0] y[14,1] y[14,2] y[15,0] y[15,1] y[15,2]
 y[16,0] y[16,1] y[16,2] y[17,0] y[17,1] y[17,2] y[18,0] y[18,1] y[18,2]
 y[19,0] y[19,1] y[19,2] y[20,0] y[20,1] y[20,2] y[21,0] y[21,1] y[21,2]
 y[22,0] y[22,1] y[22,2] y[23,0] y[23,1] y[23,2]
Generals
 x[0,0,0] x[0,0,1] x[0,0,2] x[0,1,0] x[0,1,1] x[0,1,2] x[0,2,0] x[0,2,1]
 x[0,2,2] x[0,3,0] x[0,3,1] x[0,3,2] x[0,4,0] x[0,4,1] x[0,4,2] x[1,0,0]
 x[1,0,1] x[1,0,2] x[1,1,0] x[1,1,1] x[1,1,2] x[1,2,0] x[1,2,1] x[1,2,2]
 x[1,3,0] x[1,3,1] x[1,3,2] x[1,4,0] x[1,4,1] x[1,4,2] x[2,0,0] x[2,0,1]
 x[2,0,2] x[2,1,0] x[2,1,1] x[2,1,2] x[2,2,0] x[2,2,1] x[2,2,2] x[2,3,0]
 x[2,3,1] x[2,3,2] x[2,4,0] x[2,4,1] x[2,4,2] x[3,0,0] x[3,0,1] x[3,0,2]
 x[3,1,0] x[3,1,1] x[3,1,2] x[3,2,0] x[3,2,1] x[3,2,2] x[3,3,0] x[3,3,1]
 x[3,3,2] x[3,4,0] x[3,4,1] x[3,4,2] x[4,0,0] x[4,0,1] x[4,0,2] x[4,1,0]
 x[4,1,1] x[4,1,2] x[4,2,0] x[4,2,1] x[4,2,2] x[4,3,0] x[4,3,1] x[4,3,2]
 x[4,4,0] x[4,4,1] x[4,4,2] x[5,0,0] x[5,0,1] x[5,0,2] x[5,1,0] x[5,1,1]
 x[5,1,2] x[5,2,0] x[5,2,1] x[5,2,2] x[5,3,0] x[5,3,1] x[5,3,2] x[5,4,0]
 x[5,4,1] x[5,4,2] x[6,0,0] x[6,0,1] x[6,0,2] x[6,1,0] x[6,1,1] x[6,1,2]
 x[6,2,0] x[6,2,1] x[6,2,2] x[6,3,0] x[6,3,1] x[6,3,2] x[6,4,0] x[6,4,1]
 x[6,4,2] x[7,0,0] x[7,0,1] x[7,0,2] x[7,1,0] x[7,1,1] x[7,1,2] x[7,2,0]
 x[7,2,1] x[7,2,2] x[7,3,0] x[7,3,1] x[7,3,2] x[7,4,0] x[7,4,1] x[7,4,2]
 x[8,0,0] x[8,0,1] x[8,0,2] x[8,1,0] x[8,1,1] x[8,1,2] x[8,2,0] x[8,2,1]
 x[8,2,2] x[8,3,0] x[8,3,1] x[8,3,2] x[8,4,0] x[8,4,1] x[8,4,2] x[9,0,0]
 x[9,0,1] x[9,0,2] x[9,1,0] x[9,1,1] x[9,1,2] x[9,2,0] x[9,2,1] x[9,2,2]
 x[9,3,0] x[9,3,1] x[9,3,2] x[9,4,0] x[9,4,1] x[9,4,2] x[10,0,0] x[10,0,1]
 x[10,0,2] x[10,1,0] x[10,1,1] x[10,1,2] x[10,2,0] x[10,2,1] x[10,2,2]
 x[10,3,0] x[10,3,1] x[10,3,2] x[10,4,0] x[10,4,1] x[10,4,2] x[11,0,0]
 x[11,0,1] x[11,0,2] x[11,1,0] x[11,1,1] x[11,1,2] x[11,2,0] x[11,2,1]
 x[11,2,2] x[11,3,0] x[11,3,1] x[11,3,2] x[11,4,0] x[11,4,1] x[11,4,2]
 x[12,0,0] x[12,0,1] x[12,0,2] x[12,1,0] x[12,1,1] x[12,1,2] x[12,2,0]
 x[12,2,1] x[12,2,2] x[12,3,0] x[12,3,1] x[12,3,2] x[12,4,0] x[12,4,1]
 x[12,4,2] x[13,0,0] x[13,0,1] x[13,0,2] x[13,1,0] x[13,1,1] x[13,1,2]
 x[13,2,0] x[13,2,1] x[13,2,2] x[13,3,0] x[13,3,1] x[13,3,2] x[13,4,0]
 x[13,4,1] x[13,4,2] x[14,0,0] x[14,0,1] x[14,0,2] x[14,1,0] x[14,1,1]
 x[14,1,2] x[14,2,0] x[14,2,1] x[14,2,2] x[14,3,0] x[14,3,1] x[14,3,2]
 x[14,4,0] x[14,4,1] x[14,4,2] x[15,0,0] x[15,0,1] x[15,0,2] x[15,1,0]
 x[15,1,1] x[15,1,2] x[15,2,0] x[15,2,1] x[15,2,2] x[15,3,0] x[15,3,1]
 x[15,3,2] x[15,4,0] x[15,4,1] x[15,4,2] x[16,0,0] x[16,0,1] x[16,0,2]
 x[16,1,0] x[16,1,1] x[16,1,2] x[16,2,0] x[16,2,1] x[16,2,2] x[16,3,0]
 x[16,3,1] x[16,3,2] x[16,4,0] x[16,4,1] x[16,4,2] x[17,0,0] x[17,0,1]
 x[17,0,2] x[17,1,0] x[17,1,1] x[17,1,2] x[17,2,0] x[17,2,1] x[17,2,2]
 x[17,3,0] x[17,3,1] x[17,3,2] x[17,4,0] x[17,4,1] x[17,4,2] x[18,0,0]
 x[18,0,1] x[18,0,2] x[18,1,0] x[18,1,1] x[18,1,2] x[18,2,0] x[18,2,1]
 x[18,2,2] x[18,3,0] x[18,3,1] x[18,3,2] x[18,4,0] x[18,4,1] x[18,4,2]
 x[19,0,0] x[19,0,1] x[19,0,2] x[19,1,0] x[19,1,1] x[19,1,2] x[19,2,0]
 x[19,2,1] x[19,2,2] x[19,3,0] x[19,3,1] x[19,3,2] x[19,4,0] x[19,4,1]
 x[19,4,2] x[20,0,0] x[20,0,1] x[20,0,2] x[20,1,0] x[20,1,1] x[20,1,2]
 x[20,2,0] x[20,2,1] x[20,2,2] x[20,3,0] x[20,3,1] x[20,3,2] x[20,4,0]
 x[20,4,1] x[20,4,2] x[21,0,0] x[21,0,1] x[21,0,2] x[21,1,0] x[21,1,1]
 x[21,1,2] x[21,2,0] x[21,2,1] x[21,2,2] x[21,3,0] x[21,3,1] x[21,3,2]
 x[21,4,0] x[21,4,1] x[21,4,2] x[22,0,0] x[22,0,1] x[22,0,2] x[22,1,0]
 x[22,1,1] x[22,1,2] x[22,2,0] x[22,2,1] x[22,2,2] x[22,3,0] x[22,3,1]
 x[22,3,2] x[22,4,0] x[22,4,1] x[22,4,2] x[23,0,0] x[23,0,1] x[23,0,2]
 x[23,1,0] x[23,1,1] x[23,1,2] x[23,2,0] x[23,2,1] x[23,2,2] x[23,3,0]
 x[23,3,1] x[23,3,2] x[23,4,0] x[23,4,1] x[23,4,2]
End
